126
400
280	1
279	1
278	1
275	1
273	3
269	2
268	1
267	1
265	2
264	1
263	1
262	1
261	2
258	1
257	2
256	1
254	3
252	1
251	1
249	2
247	1
246	1
245	1
244	1
240	1
239	1
238	2
237	2
235	1
234	1
233	1
232	1
230	4
229	1
228	1
227	2
226	1
225	4
224	2
222	3
220	2
219	2
218	1
217	2
214	1
213	1
210	3
209	2
206	3
205	1
204	2
203	3
202	1
201	1
200	1
199	2
196	1
195	2
194	1
193	1
192	3
189	2
187	1
185	1
183	2
182	1
180	1
176	1
174	1
173	2
172	1
171	2
169	2
166	1
165	3
160	2
158	1
157	2
154	1
153	1
151	2
150	4
149	1
148	1
147	1
146	2
144	1
141	1
140	1
139	3
138	1
137	1
135	1
133	1
132	2
130	2
128	1
127	3
125	1
124	1
122	1
121	3
120	1
119	1
118	1
117	1
116	1
114	2
113	1
112	2
111	2
108	3
103	2
100	1
97	1
94	2
93	2
92	1
91	2
88	2
87	1
86	1
85	2
83	2
81	2
80	4
